NAME : XML100_3251_25
DIMENSION : 101
NB_CLUSTERS : 7
CLUSTERING_ALG : DBSCAN
CLUSTERING_PARAMS : eps(83), minSamples(3)
CLUSTERS
1 0
2 1 2 8 16 18 26 30 35 42 43 49 51 52 56 60 61 62 68 70 72 76 77 81 82 85 91 92 94 96
3 3 4 7 17 38 44 45 50 53 58 64 67 71 74 80
4 6 13 14 15 25 27 29 34 40 46 57 66 73 83 88 90 98 99 100
5 5 10 11 12 20 28 37 39 55 63 65 69
6 19 21 22 23 24 31 32 33 36 41 47 48 54 59 75 79 84 87 89 93 95 97
7 9 78 86
EOF